(set-option :produce-models true)
(declare-fun aceiteComprado_1_1 () Int)
(declare-fun aceiteComprado_1_2 () Int)
(declare-fun aceiteComprado_1_3 () Int)
(declare-fun aceiteComprado_1_4 () Int)
(declare-fun aceiteComprado_1_5 () Int)
(declare-fun aceiteComprado_2_1 () Int)
(declare-fun aceiteComprado_2_2 () Int)
(declare-fun aceiteComprado_2_3 () Int)
(declare-fun aceiteComprado_2_4 () Int)
(declare-fun aceiteComprado_2_5 () Int)
(declare-fun aceiteComprado_3_1 () Int)
(declare-fun aceiteComprado_3_2 () Int)
(declare-fun aceiteComprado_3_3 () Int)
(declare-fun aceiteComprado_3_4 () Int)
(declare-fun aceiteComprado_3_5 () Int)
(declare-fun aceiteComprado_4_1 () Int)
(declare-fun aceiteComprado_4_2 () Int)
(declare-fun aceiteComprado_4_3 () Int)
(declare-fun aceiteComprado_4_4 () Int)
(declare-fun aceiteComprado_4_5 () Int)
(declare-fun aceiteComprado_5_1 () Int)
(declare-fun aceiteComprado_5_2 () Int)
(declare-fun aceiteComprado_5_3 () Int)
(declare-fun aceiteComprado_5_4 () Int)
(declare-fun aceiteComprado_5_5 () Int)
(declare-fun aceiteComprado_6_1 () Int)
(declare-fun aceiteComprado_6_2 () Int)
(declare-fun aceiteComprado_6_3 () Int)
(declare-fun aceiteComprado_6_4 () Int)
(declare-fun aceiteComprado_6_5 () Int)
(declare-fun aceiteRefinado_1_1 () Int)
(declare-fun aceiteRefinado_1_2 () Int)
(declare-fun aceiteRefinado_1_3 () Int)
(declare-fun aceiteRefinado_1_4 () Int)
(declare-fun aceiteRefinado_1_5 () Int)
(declare-fun aceiteRefinado_2_1 () Int)
(declare-fun aceiteRefinado_2_2 () Int)
(declare-fun aceiteRefinado_2_3 () Int)
(declare-fun aceiteRefinado_2_4 () Int)
(declare-fun aceiteRefinado_2_5 () Int)
(declare-fun aceiteRefinado_3_1 () Int)
(declare-fun aceiteRefinado_3_2 () Int)
(declare-fun aceiteRefinado_3_3 () Int)
(declare-fun aceiteRefinado_3_4 () Int)
(declare-fun aceiteRefinado_3_5 () Int)
(declare-fun aceiteRefinado_4_1 () Int)
(declare-fun aceiteRefinado_4_2 () Int)
(declare-fun aceiteRefinado_4_3 () Int)
(declare-fun aceiteRefinado_4_4 () Int)
(declare-fun aceiteRefinado_4_5 () Int)
(declare-fun aceiteRefinado_5_1 () Int)
(declare-fun aceiteRefinado_5_2 () Int)
(declare-fun aceiteRefinado_5_3 () Int)
(declare-fun aceiteRefinado_5_4 () Int)
(declare-fun aceiteRefinado_5_5 () Int)
(declare-fun aceiteRefinado_6_1 () Int)
(declare-fun aceiteRefinado_6_2 () Int)
(declare-fun aceiteRefinado_6_3 () Int)
(declare-fun aceiteRefinado_6_4 () Int)
(declare-fun aceiteRefinado_6_5 () Int)
(declare-fun aceiteAlmacenado_0_1 () Int)
(declare-fun aceiteAlmacenado_0_2 () Int)
(declare-fun aceiteAlmacenado_0_3 () Int)
(declare-fun aceiteAlmacenado_0_4 () Int)
(declare-fun aceiteAlmacenado_0_5 () Int)
(declare-fun aceiteAlmacenado_1_1 () Int)
(declare-fun aceiteAlmacenado_1_2 () Int)
(declare-fun aceiteAlmacenado_1_3 () Int)
(declare-fun aceiteAlmacenado_1_4 () Int)
(declare-fun aceiteAlmacenado_1_5 () Int)
(declare-fun aceiteAlmacenado_2_1 () Int)
(declare-fun aceiteAlmacenado_2_2 () Int)
(declare-fun aceiteAlmacenado_2_3 () Int)
(declare-fun aceiteAlmacenado_2_4 () Int)
(declare-fun aceiteAlmacenado_2_5 () Int)
(declare-fun aceiteAlmacenado_3_1 () Int)
(declare-fun aceiteAlmacenado_3_2 () Int)
(declare-fun aceiteAlmacenado_3_3 () Int)
(declare-fun aceiteAlmacenado_3_4 () Int)
(declare-fun aceiteAlmacenado_3_5 () Int)
(declare-fun aceiteAlmacenado_4_1 () Int)
(declare-fun aceiteAlmacenado_4_2 () Int)
(declare-fun aceiteAlmacenado_4_3 () Int)
(declare-fun aceiteAlmacenado_4_4 () Int)
(declare-fun aceiteAlmacenado_4_5 () Int)
(declare-fun aceiteAlmacenado_5_1 () Int)
(declare-fun aceiteAlmacenado_5_2 () Int)
(declare-fun aceiteAlmacenado_5_3 () Int)
(declare-fun aceiteAlmacenado_5_4 () Int)
(declare-fun aceiteAlmacenado_5_5 () Int)
(declare-fun aceiteAlmacenado_6_1 () Int)
(declare-fun aceiteAlmacenado_6_2 () Int)
(declare-fun aceiteAlmacenado_6_3 () Int)
(declare-fun aceiteAlmacenado_6_4 () Int)
(declare-fun aceiteAlmacenado_6_5 () Int)
(assert (<= 0 aceiteComprado_1_1 ) )
(assert (>= 1000 aceiteComprado_1_1 ) )
(assert (<= 0 aceiteRefinado_1_1 ) )
(assert (>= 1000 aceiteRefinado_1_1 ) )
(assert (<= 0 aceiteAlmacenado_1_1 ) )
(assert (>= 1000 aceiteAlmacenado_1_1 ) )
(assert (<= 0 aceiteComprado_1_2 ) )
(assert (>= 1000 aceiteComprado_1_2 ) )
(assert (<= 0 aceiteRefinado_1_2 ) )
(assert (>= 1000 aceiteRefinado_1_2 ) )
(assert (<= 0 aceiteAlmacenado_1_2 ) )
(assert (>= 1000 aceiteAlmacenado_1_2 ) )
(assert (<= 0 aceiteComprado_1_3 ) )
(assert (>= 1000 aceiteComprado_1_3 ) )
(assert (<= 0 aceiteRefinado_1_3 ) )
(assert (>= 1000 aceiteRefinado_1_3 ) )
(assert (<= 0 aceiteAlmacenado_1_3 ) )
(assert (>= 1000 aceiteAlmacenado_1_3 ) )
(assert (<= 0 aceiteComprado_1_4 ) )
(assert (>= 1000 aceiteComprado_1_4 ) )
(assert (<= 0 aceiteRefinado_1_4 ) )
(assert (>= 1000 aceiteRefinado_1_4 ) )
(assert (<= 0 aceiteAlmacenado_1_4 ) )
(assert (>= 1000 aceiteAlmacenado_1_4 ) )
(assert (<= 0 aceiteComprado_1_5 ) )
(assert (>= 1000 aceiteComprado_1_5 ) )
(assert (<= 0 aceiteRefinado_1_5 ) )
(assert (>= 1000 aceiteRefinado_1_5 ) )
(assert (<= 0 aceiteAlmacenado_1_5 ) )
(assert (>= 1000 aceiteAlmacenado_1_5 ) )
(assert (<= 0 aceiteComprado_2_1 ) )
(assert (>= 1000 aceiteComprado_2_1 ) )
(assert (<= 0 aceiteRefinado_2_1 ) )
(assert (>= 1000 aceiteRefinado_2_1 ) )
(assert (<= 0 aceiteAlmacenado_2_1 ) )
(assert (>= 1000 aceiteAlmacenado_2_1 ) )
(assert (<= 0 aceiteComprado_2_2 ) )
(assert (>= 1000 aceiteComprado_2_2 ) )
(assert (<= 0 aceiteRefinado_2_2 ) )
(assert (>= 1000 aceiteRefinado_2_2 ) )
(assert (<= 0 aceiteAlmacenado_2_2 ) )
(assert (>= 1000 aceiteAlmacenado_2_2 ) )
(assert (<= 0 aceiteComprado_2_3 ) )
(assert (>= 1000 aceiteComprado_2_3 ) )
(assert (<= 0 aceiteRefinado_2_3 ) )
(assert (>= 1000 aceiteRefinado_2_3 ) )
(assert (<= 0 aceiteAlmacenado_2_3 ) )
(assert (>= 1000 aceiteAlmacenado_2_3 ) )
(assert (<= 0 aceiteComprado_2_4 ) )
(assert (>= 1000 aceiteComprado_2_4 ) )
(assert (<= 0 aceiteRefinado_2_4 ) )
(assert (>= 1000 aceiteRefinado_2_4 ) )
(assert (<= 0 aceiteAlmacenado_2_4 ) )
(assert (>= 1000 aceiteAlmacenado_2_4 ) )
(assert (<= 0 aceiteComprado_2_5 ) )
(assert (>= 1000 aceiteComprado_2_5 ) )
(assert (<= 0 aceiteRefinado_2_5 ) )
(assert (>= 1000 aceiteRefinado_2_5 ) )
(assert (<= 0 aceiteAlmacenado_2_5 ) )
(assert (>= 1000 aceiteAlmacenado_2_5 ) )
(assert (<= 0 aceiteComprado_3_1 ) )
(assert (>= 1000 aceiteComprado_3_1 ) )
(assert (<= 0 aceiteRefinado_3_1 ) )
(assert (>= 1000 aceiteRefinado_3_1 ) )
(assert (<= 0 aceiteAlmacenado_3_1 ) )
(assert (>= 1000 aceiteAlmacenado_3_1 ) )
(assert (<= 0 aceiteComprado_3_2 ) )
(assert (>= 1000 aceiteComprado_3_2 ) )
(assert (<= 0 aceiteRefinado_3_2 ) )
(assert (>= 1000 aceiteRefinado_3_2 ) )
(assert (<= 0 aceiteAlmacenado_3_2 ) )
(assert (>= 1000 aceiteAlmacenado_3_2 ) )
(assert (<= 0 aceiteComprado_3_3 ) )
(assert (>= 1000 aceiteComprado_3_3 ) )
(assert (<= 0 aceiteRefinado_3_3 ) )
(assert (>= 1000 aceiteRefinado_3_3 ) )
(assert (<= 0 aceiteAlmacenado_3_3 ) )
(assert (>= 1000 aceiteAlmacenado_3_3 ) )
(assert (<= 0 aceiteComprado_3_4 ) )
(assert (>= 1000 aceiteComprado_3_4 ) )
(assert (<= 0 aceiteRefinado_3_4 ) )
(assert (>= 1000 aceiteRefinado_3_4 ) )
(assert (<= 0 aceiteAlmacenado_3_4 ) )
(assert (>= 1000 aceiteAlmacenado_3_4 ) )
(assert (<= 0 aceiteComprado_3_5 ) )
(assert (>= 1000 aceiteComprado_3_5 ) )
(assert (<= 0 aceiteRefinado_3_5 ) )
(assert (>= 1000 aceiteRefinado_3_5 ) )
(assert (<= 0 aceiteAlmacenado_3_5 ) )
(assert (>= 1000 aceiteAlmacenado_3_5 ) )
(assert (<= 0 aceiteComprado_4_1 ) )
(assert (>= 1000 aceiteComprado_4_1 ) )
(assert (<= 0 aceiteRefinado_4_1 ) )
(assert (>= 1000 aceiteRefinado_4_1 ) )
(assert (<= 0 aceiteAlmacenado_4_1 ) )
(assert (>= 1000 aceiteAlmacenado_4_1 ) )
(assert (<= 0 aceiteComprado_4_2 ) )
(assert (>= 1000 aceiteComprado_4_2 ) )
(assert (<= 0 aceiteRefinado_4_2 ) )
(assert (>= 1000 aceiteRefinado_4_2 ) )
(assert (<= 0 aceiteAlmacenado_4_2 ) )
(assert (>= 1000 aceiteAlmacenado_4_2 ) )
(assert (<= 0 aceiteComprado_4_3 ) )
(assert (>= 1000 aceiteComprado_4_3 ) )
(assert (<= 0 aceiteRefinado_4_3 ) )
(assert (>= 1000 aceiteRefinado_4_3 ) )
(assert (<= 0 aceiteAlmacenado_4_3 ) )
(assert (>= 1000 aceiteAlmacenado_4_3 ) )
(assert (<= 0 aceiteComprado_4_4 ) )
(assert (>= 1000 aceiteComprado_4_4 ) )
(assert (<= 0 aceiteRefinado_4_4 ) )
(assert (>= 1000 aceiteRefinado_4_4 ) )
(assert (<= 0 aceiteAlmacenado_4_4 ) )
(assert (>= 1000 aceiteAlmacenado_4_4 ) )
(assert (<= 0 aceiteComprado_4_5 ) )
(assert (>= 1000 aceiteComprado_4_5 ) )
(assert (<= 0 aceiteRefinado_4_5 ) )
(assert (>= 1000 aceiteRefinado_4_5 ) )
(assert (<= 0 aceiteAlmacenado_4_5 ) )
(assert (>= 1000 aceiteAlmacenado_4_5 ) )
(assert (<= 0 aceiteComprado_5_1 ) )
(assert (>= 1000 aceiteComprado_5_1 ) )
(assert (<= 0 aceiteRefinado_5_1 ) )
(assert (>= 1000 aceiteRefinado_5_1 ) )
(assert (<= 0 aceiteAlmacenado_5_1 ) )
(assert (>= 1000 aceiteAlmacenado_5_1 ) )
(assert (<= 0 aceiteComprado_5_2 ) )
(assert (>= 1000 aceiteComprado_5_2 ) )
(assert (<= 0 aceiteRefinado_5_2 ) )
(assert (>= 1000 aceiteRefinado_5_2 ) )
(assert (<= 0 aceiteAlmacenado_5_2 ) )
(assert (>= 1000 aceiteAlmacenado_5_2 ) )
(assert (<= 0 aceiteComprado_5_3 ) )
(assert (>= 1000 aceiteComprado_5_3 ) )
(assert (<= 0 aceiteRefinado_5_3 ) )
(assert (>= 1000 aceiteRefinado_5_3 ) )
(assert (<= 0 aceiteAlmacenado_5_3 ) )
(assert (>= 1000 aceiteAlmacenado_5_3 ) )
(assert (<= 0 aceiteComprado_5_4 ) )
(assert (>= 1000 aceiteComprado_5_4 ) )
(assert (<= 0 aceiteRefinado_5_4 ) )
(assert (>= 1000 aceiteRefinado_5_4 ) )
(assert (<= 0 aceiteAlmacenado_5_4 ) )
(assert (>= 1000 aceiteAlmacenado_5_4 ) )
(assert (<= 0 aceiteComprado_5_5 ) )
(assert (>= 1000 aceiteComprado_5_5 ) )
(assert (<= 0 aceiteRefinado_5_5 ) )
(assert (>= 1000 aceiteRefinado_5_5 ) )
(assert (<= 0 aceiteAlmacenado_5_5 ) )
(assert (>= 1000 aceiteAlmacenado_5_5 ) )
(assert (<= 0 aceiteComprado_6_1 ) )
(assert (>= 1000 aceiteComprado_6_1 ) )
(assert (<= 0 aceiteRefinado_6_1 ) )
(assert (>= 1000 aceiteRefinado_6_1 ) )
(assert (<= 0 aceiteAlmacenado_6_1 ) )
(assert (>= 1000 aceiteAlmacenado_6_1 ) )
(assert (<= 0 aceiteComprado_6_2 ) )
(assert (>= 1000 aceiteComprado_6_2 ) )
(assert (<= 0 aceiteRefinado_6_2 ) )
(assert (>= 1000 aceiteRefinado_6_2 ) )
(assert (<= 0 aceiteAlmacenado_6_2 ) )
(assert (>= 1000 aceiteAlmacenado_6_2 ) )
(assert (<= 0 aceiteComprado_6_3 ) )
(assert (>= 1000 aceiteComprado_6_3 ) )
(assert (<= 0 aceiteRefinado_6_3 ) )
(assert (>= 1000 aceiteRefinado_6_3 ) )
(assert (<= 0 aceiteAlmacenado_6_3 ) )
(assert (>= 1000 aceiteAlmacenado_6_3 ) )
(assert (<= 0 aceiteComprado_6_4 ) )
(assert (>= 1000 aceiteComprado_6_4 ) )
(assert (<= 0 aceiteRefinado_6_4 ) )
(assert (>= 1000 aceiteRefinado_6_4 ) )
(assert (<= 0 aceiteAlmacenado_6_4 ) )
(assert (>= 1000 aceiteAlmacenado_6_4 ) )
(assert (<= 0 aceiteComprado_6_5 ) )
(assert (>= 1000 aceiteComprado_6_5 ) )
(assert (<= 0 aceiteRefinado_6_5 ) )
(assert (>= 1000 aceiteRefinado_6_5 ) )
(assert (<= 0 aceiteAlmacenado_6_5 ) )
(assert (>= 1000 aceiteAlmacenado_6_5 ) )
(assert (<= 0 aceiteAlmacenado_0_1 ) )
(assert (>= 1000 aceiteAlmacenado_0_1 ) )
(assert (<= 0 aceiteAlmacenado_0_2 ) )
(assert (>= 1000 aceiteAlmacenado_0_2 ) )
(assert (<= 0 aceiteAlmacenado_0_3 ) )
(assert (>= 1000 aceiteAlmacenado_0_3 ) )
(assert (<= 0 aceiteAlmacenado_0_4 ) )
(assert (>= 1000 aceiteAlmacenado_0_4 ) )
(assert (<= 0 aceiteAlmacenado_0_5 ) )
(assert (>= 1000 aceiteAlmacenado_0_5 ) )
(assert (<= 0 aceiteAlmacenado_1_1 ) )
(assert (>= 1000 aceiteAlmacenado_1_1 ) )
(assert (<= 0 aceiteAlmacenado_1_2 ) )
(assert (>= 1000 aceiteAlmacenado_1_2 ) )
(assert (<= 0 aceiteAlmacenado_1_3 ) )
(assert (>= 1000 aceiteAlmacenado_1_3 ) )
(assert (<= 0 aceiteAlmacenado_1_4 ) )
(assert (>= 1000 aceiteAlmacenado_1_4 ) )
(assert (<= 0 aceiteAlmacenado_1_5 ) )
(assert (>= 1000 aceiteAlmacenado_1_5 ) )
(assert (<= 0 aceiteAlmacenado_2_1 ) )
(assert (>= 1000 aceiteAlmacenado_2_1 ) )
(assert (<= 0 aceiteAlmacenado_2_2 ) )
(assert (>= 1000 aceiteAlmacenado_2_2 ) )
(assert (<= 0 aceiteAlmacenado_2_3 ) )
(assert (>= 1000 aceiteAlmacenado_2_3 ) )
(assert (<= 0 aceiteAlmacenado_2_4 ) )
(assert (>= 1000 aceiteAlmacenado_2_4 ) )
(assert (<= 0 aceiteAlmacenado_2_5 ) )
(assert (>= 1000 aceiteAlmacenado_2_5 ) )
(assert (<= 0 aceiteAlmacenado_3_1 ) )
(assert (>= 1000 aceiteAlmacenado_3_1 ) )
(assert (<= 0 aceiteAlmacenado_3_2 ) )
(assert (>= 1000 aceiteAlmacenado_3_2 ) )
(assert (<= 0 aceiteAlmacenado_3_3 ) )
(assert (>= 1000 aceiteAlmacenado_3_3 ) )
(assert (<= 0 aceiteAlmacenado_3_4 ) )
(assert (>= 1000 aceiteAlmacenado_3_4 ) )
(assert (<= 0 aceiteAlmacenado_3_5 ) )
(assert (>= 1000 aceiteAlmacenado_3_5 ) )
(assert (<= 0 aceiteAlmacenado_4_1 ) )
(assert (>= 1000 aceiteAlmacenado_4_1 ) )
(assert (<= 0 aceiteAlmacenado_4_2 ) )
(assert (>= 1000 aceiteAlmacenado_4_2 ) )
(assert (<= 0 aceiteAlmacenado_4_3 ) )
(assert (>= 1000 aceiteAlmacenado_4_3 ) )
(assert (<= 0 aceiteAlmacenado_4_4 ) )
(assert (>= 1000 aceiteAlmacenado_4_4 ) )
(assert (<= 0 aceiteAlmacenado_4_5 ) )
(assert (>= 1000 aceiteAlmacenado_4_5 ) )
(assert (<= 0 aceiteAlmacenado_5_1 ) )
(assert (>= 1000 aceiteAlmacenado_5_1 ) )
(assert (<= 0 aceiteAlmacenado_5_2 ) )
(assert (>= 1000 aceiteAlmacenado_5_2 ) )
(assert (<= 0 aceiteAlmacenado_5_3 ) )
(assert (>= 1000 aceiteAlmacenado_5_3 ) )
(assert (<= 0 aceiteAlmacenado_5_4 ) )
(assert (>= 1000 aceiteAlmacenado_5_4 ) )
(assert (<= 0 aceiteAlmacenado_5_5 ) )
(assert (>= 1000 aceiteAlmacenado_5_5 ) )
(assert (<= 0 aceiteAlmacenado_6_1 ) )
(assert (>= 1000 aceiteAlmacenado_6_1 ) )
(assert (<= 0 aceiteAlmacenado_6_2 ) )
(assert (>= 1000 aceiteAlmacenado_6_2 ) )
(assert (<= 0 aceiteAlmacenado_6_3 ) )
(assert (>= 1000 aceiteAlmacenado_6_3 ) )
(assert (<= 0 aceiteAlmacenado_6_4 ) )
(assert (>= 1000 aceiteAlmacenado_6_4 ) )
(assert (<= 0 aceiteAlmacenado_6_5 ) )
(assert (>= 1000 aceiteAlmacenado_6_5 ) )
(assert (= (+ aceiteComprado_1_1 (- aceiteAlmacenado_0_1 0 ) ) aceiteAlmacenado_1_1 ) )
(assert (= (+ aceiteComprado_1_2 (- aceiteAlmacenado_0_2 0 ) ) aceiteAlmacenado_1_2 ) )
(assert (= (+ aceiteComprado_1_3 (- aceiteAlmacenado_0_3 0 ) ) aceiteAlmacenado_1_3 ) )
(assert (= (+ aceiteComprado_1_4 (- aceiteAlmacenado_0_4 0 ) ) aceiteAlmacenado_1_4 ) )
(assert (= (+ aceiteComprado_1_5 (- aceiteAlmacenado_0_5 0 ) ) aceiteAlmacenado_1_5 ) )
(assert (= (+ aceiteComprado_2_1 (- aceiteAlmacenado_1_1 aceiteRefinado_1_1 ) ) aceiteAlmacenado_2_1 ) )
(assert (= (+ aceiteComprado_2_2 (- aceiteAlmacenado_1_2 aceiteRefinado_1_2 ) ) aceiteAlmacenado_2_2 ) )
(assert (= (+ aceiteComprado_2_3 (- aceiteAlmacenado_1_3 aceiteRefinado_1_3 ) ) aceiteAlmacenado_2_3 ) )
(assert (= (+ aceiteComprado_2_4 (- aceiteAlmacenado_1_4 aceiteRefinado_1_4 ) ) aceiteAlmacenado_2_4 ) )
(assert (= (+ aceiteComprado_2_5 (- aceiteAlmacenado_1_5 aceiteRefinado_1_5 ) ) aceiteAlmacenado_2_5 ) )
(assert (= (+ aceiteComprado_3_1 (- aceiteAlmacenado_2_1 aceiteRefinado_2_1 ) ) aceiteAlmacenado_3_1 ) )
(assert (= (+ aceiteComprado_3_2 (- aceiteAlmacenado_2_2 aceiteRefinado_2_2 ) ) aceiteAlmacenado_3_2 ) )
(assert (= (+ aceiteComprado_3_3 (- aceiteAlmacenado_2_3 aceiteRefinado_2_3 ) ) aceiteAlmacenado_3_3 ) )
(assert (= (+ aceiteComprado_3_4 (- aceiteAlmacenado_2_4 aceiteRefinado_2_4 ) ) aceiteAlmacenado_3_4 ) )
(assert (= (+ aceiteComprado_3_5 (- aceiteAlmacenado_2_5 aceiteRefinado_2_5 ) ) aceiteAlmacenado_3_5 ) )
(assert (= (+ aceiteComprado_4_1 (- aceiteAlmacenado_3_1 aceiteRefinado_3_1 ) ) aceiteAlmacenado_4_1 ) )
(assert (= (+ aceiteComprado_4_2 (- aceiteAlmacenado_3_2 aceiteRefinado_3_2 ) ) aceiteAlmacenado_4_2 ) )
(assert (= (+ aceiteComprado_4_3 (- aceiteAlmacenado_3_3 aceiteRefinado_3_3 ) ) aceiteAlmacenado_4_3 ) )
(assert (= (+ aceiteComprado_4_4 (- aceiteAlmacenado_3_4 aceiteRefinado_3_4 ) ) aceiteAlmacenado_4_4 ) )
(assert (= (+ aceiteComprado_4_5 (- aceiteAlmacenado_3_5 aceiteRefinado_3_5 ) ) aceiteAlmacenado_4_5 ) )
(assert (= (+ aceiteComprado_5_1 (- aceiteAlmacenado_4_1 aceiteRefinado_4_1 ) ) aceiteAlmacenado_5_1 ) )
(assert (= (+ aceiteComprado_5_2 (- aceiteAlmacenado_4_2 aceiteRefinado_4_2 ) ) aceiteAlmacenado_5_2 ) )
(assert (= (+ aceiteComprado_5_3 (- aceiteAlmacenado_4_3 aceiteRefinado_4_3 ) ) aceiteAlmacenado_5_3 ) )
(assert (= (+ aceiteComprado_5_4 (- aceiteAlmacenado_4_4 aceiteRefinado_4_4 ) ) aceiteAlmacenado_5_4 ) )
(assert (= (+ aceiteComprado_5_5 (- aceiteAlmacenado_4_5 aceiteRefinado_4_5 ) ) aceiteAlmacenado_5_5 ) )
(assert (= (+ aceiteComprado_6_1 (- aceiteAlmacenado_5_1 aceiteRefinado_5_1 ) ) aceiteAlmacenado_6_1 ) )
(assert (= (+ aceiteComprado_6_2 (- aceiteAlmacenado_5_2 aceiteRefinado_5_2 ) ) aceiteAlmacenado_6_2 ) )
(assert (= (+ aceiteComprado_6_3 (- aceiteAlmacenado_5_3 aceiteRefinado_5_3 ) ) aceiteAlmacenado_6_3 ) )
(assert (= (+ aceiteComprado_6_4 (- aceiteAlmacenado_5_4 aceiteRefinado_5_4 ) ) aceiteAlmacenado_6_4 ) )
(assert (= (+ aceiteComprado_6_5 (- aceiteAlmacenado_5_5 aceiteRefinado_5_5 ) ) aceiteAlmacenado_6_5 ) )
(assert (and (= aceiteAlmacenado_0_1 200 ) (= (- aceiteAlmacenado_6_1 aceiteRefinado_6_1 ) 200 ) ) )
(assert (and (= aceiteAlmacenado_0_2 200 ) (= (- aceiteAlmacenado_6_2 aceiteRefinado_6_2 ) 200 ) ) )
(assert (and (= aceiteAlmacenado_0_3 200 ) (= (- aceiteAlmacenado_6_3 aceiteRefinado_6_3 ) 200 ) ) )
(assert (and (= aceiteAlmacenado_0_4 200 ) (= (- aceiteAlmacenado_6_4 aceiteRefinado_6_4 ) 200 ) ) )
(assert (and (= aceiteAlmacenado_0_5 200 ) (= (- aceiteAlmacenado_6_5 aceiteRefinado_6_5 ) 200 ) ) )
(assert (and (<= (+ aceiteRefinado_1_1 aceiteRefinado_1_2 ) 200 ) (<= (+ aceiteRefinado_1_3 (+ aceiteRefinado_1_4 aceiteRefinado_1_5 ) ) 250 ) ) )
(assert (and (<= (+ aceiteRefinado_2_1 aceiteRefinado_2_2 ) 200 ) (<= (+ aceiteRefinado_2_3 (+ aceiteRefinado_2_4 aceiteRefinado_2_5 ) ) 250 ) ) )
(assert (and (<= (+ aceiteRefinado_3_1 aceiteRefinado_3_2 ) 200 ) (<= (+ aceiteRefinado_3_3 (+ aceiteRefinado_3_4 aceiteRefinado_3_5 ) ) 250 ) ) )
(assert (and (<= (+ aceiteRefinado_4_1 aceiteRefinado_4_2 ) 200 ) (<= (+ aceiteRefinado_4_3 (+ aceiteRefinado_4_4 aceiteRefinado_4_5 ) ) 250 ) ) )
(assert (and (<= (+ aceiteRefinado_5_1 aceiteRefinado_5_2 ) 200 ) (<= (+ aceiteRefinado_5_3 (+ aceiteRefinado_5_4 aceiteRefinado_5_5 ) ) 250 ) ) )
(assert (and (<= (+ aceiteRefinado_6_1 aceiteRefinado_6_2 ) 200 ) (<= (+ aceiteRefinado_6_3 (+ aceiteRefinado_6_4 aceiteRefinado_6_5 ) ) 250 ) ) )
(assert (and (and (<= (+ (* aceiteRefinado_1_2 6.1 ) (* aceiteRefinado_1_1 8.8 ) ) (* 6 (+ aceiteRefinado_1_2 aceiteRefinado_1_1 ) ) ) (>= (* aceiteRefinado_1_1 8.8 ) (* 3 aceiteRefinado_1_1 ) ) ) (and (<= (+ (* aceiteRefinado_1_5 5.0 ) (+ (* aceiteRefinado_1_4 4.2 ) (* aceiteRefinado_1_3 2.0 ) ) ) (* 6 (+ aceiteRefinado_1_5 (+ aceiteRefinado_1_4 aceiteRefinado_1_3 ) ) ) ) (>= (* aceiteRefinado_1_3 2.0 ) (* 3 aceiteRefinado_1_3 ) ) ) ) )
(assert (and (and (<= (+ (* aceiteRefinado_2_2 6.1 ) (* aceiteRefinado_2_1 8.8 ) ) (* 6 (+ aceiteRefinado_2_2 aceiteRefinado_2_1 ) ) ) (>= (* aceiteRefinado_2_1 8.8 ) (* 3 aceiteRefinado_2_1 ) ) ) (and (<= (+ (* aceiteRefinado_2_5 5.0 ) (+ (* aceiteRefinado_2_4 4.2 ) (* aceiteRefinado_2_3 2.0 ) ) ) (* 6 (+ aceiteRefinado_2_5 (+ aceiteRefinado_2_4 aceiteRefinado_2_3 ) ) ) ) (>= (* aceiteRefinado_2_3 2.0 ) (* 3 aceiteRefinado_2_3 ) ) ) ) )
(assert (and (and (<= (+ (* aceiteRefinado_3_2 6.1 ) (* aceiteRefinado_3_1 8.8 ) ) (* 6 (+ aceiteRefinado_3_2 aceiteRefinado_3_1 ) ) ) (>= (* aceiteRefinado_3_1 8.8 ) (* 3 aceiteRefinado_3_1 ) ) ) (and (<= (+ (* aceiteRefinado_3_5 5.0 ) (+ (* aceiteRefinado_3_4 4.2 ) (* aceiteRefinado_3_3 2.0 ) ) ) (* 6 (+ aceiteRefinado_3_5 (+ aceiteRefinado_3_4 aceiteRefinado_3_3 ) ) ) ) (>= (* aceiteRefinado_3_3 2.0 ) (* 3 aceiteRefinado_3_3 ) ) ) ) )
(assert (and (and (<= (+ (* aceiteRefinado_4_2 6.1 ) (* aceiteRefinado_4_1 8.8 ) ) (* 6 (+ aceiteRefinado_4_2 aceiteRefinado_4_1 ) ) ) (>= (* aceiteRefinado_4_1 8.8 ) (* 3 aceiteRefinado_4_1 ) ) ) (and (<= (+ (* aceiteRefinado_4_5 5.0 ) (+ (* aceiteRefinado_4_4 4.2 ) (* aceiteRefinado_4_3 2.0 ) ) ) (* 6 (+ aceiteRefinado_4_5 (+ aceiteRefinado_4_4 aceiteRefinado_4_3 ) ) ) ) (>= (* aceiteRefinado_4_3 2.0 ) (* 3 aceiteRefinado_4_3 ) ) ) ) )
(assert (and (and (<= (+ (* aceiteRefinado_5_2 6.1 ) (* aceiteRefinado_5_1 8.8 ) ) (* 6 (+ aceiteRefinado_5_2 aceiteRefinado_5_1 ) ) ) (>= (* aceiteRefinado_5_1 8.8 ) (* 3 aceiteRefinado_5_1 ) ) ) (and (<= (+ (* aceiteRefinado_5_5 5.0 ) (+ (* aceiteRefinado_5_4 4.2 ) (* aceiteRefinado_5_3 2.0 ) ) ) (* 6 (+ aceiteRefinado_5_5 (+ aceiteRefinado_5_4 aceiteRefinado_5_3 ) ) ) ) (>= (* aceiteRefinado_5_3 2.0 ) (* 3 aceiteRefinado_5_3 ) ) ) ) )
(assert (and (and (<= (+ (* aceiteRefinado_6_2 6.1 ) (* aceiteRefinado_6_1 8.8 ) ) (* 6 (+ aceiteRefinado_6_2 aceiteRefinado_6_1 ) ) ) (>= (* aceiteRefinado_6_1 8.8 ) (* 3 aceiteRefinado_6_1 ) ) ) (and (<= (+ (* aceiteRefinado_6_5 5.0 ) (+ (* aceiteRefinado_6_4 4.2 ) (* aceiteRefinado_6_3 2.0 ) ) ) (* 6 (+ aceiteRefinado_6_5 (+ aceiteRefinado_6_4 aceiteRefinado_6_3 ) ) ) ) (>= (* aceiteRefinado_6_3 2.0 ) (* 3 aceiteRefinado_6_3 ) ) ) ) )
(assert (>= (- (+ (* aceiteRefinado_6_4 400 ) (+ (* aceiteRefinado_6_3 400 ) (+ (* aceiteRefinado_6_2 400 ) (+ (* aceiteRefinado_6_1 400 ) (+ (* aceiteRefinado_5_4 400 ) (+ (* aceiteRefinado_5_3 400 ) (+ (* aceiteRefinado_5_2 400 ) (+ (* aceiteRefinado_5_1 400 ) (+ (* aceiteRefinado_4_4 400 ) (+ (* aceiteRefinado_4_3 400 ) (+ (* aceiteRefinado_4_2 400 ) (+ (* aceiteRefinado_4_1 400 ) (+ (* aceiteRefinado_3_4 400 ) (+ (* aceiteRefinado_3_3 400 ) (+ (* aceiteRefinado_3_2 400 ) (+ (* aceiteRefinado_3_1 400 ) (+ (* aceiteRefinado_2_4 400 ) (+ (* aceiteRefinado_2_3 400 ) (+ (* aceiteRefinado_2_2 400 ) (+ (* aceiteRefinado_2_1 400 ) (+ (* aceiteRefinado_1_4 400 ) (+ (* aceiteRefinado_1_3 400 ) (+ (* aceiteRefinado_1_2 400 ) (* aceiteRefinado_1_1 400 ) ) ) ) ) ) ) ) ) ) ) ) ) ) ) ) ) ) ) ) ) ) ) ) (+ (* aceiteComprado_6_5 135 ) (+ (* aceiteComprado_6_4 80 ) (+ (* aceiteComprado_6_3 140 ) (+ (* aceiteComprado_6_2 100 ) (+ (* aceiteComprado_6_1 90 ) (+ (* aceiteComprado_5_5 105 ) (+ (* aceiteComprado_5_4 110 ) (+ (* aceiteComprado_5_3 150 ) (+ (* aceiteComprado_5_2 120 ) (+ (* aceiteComprado_5_1 100 ) (+ (* aceiteComprado_4_5 125 ) (+ (* aceiteComprado_4_4 120 ) (+ (* aceiteComprado_4_3 120 ) (+ (* aceiteComprado_4_2 110 ) (+ (* aceiteComprado_4_1 120 ) (+ (* aceiteComprado_3_5 95 ) (+ (* aceiteComprado_3_4 100 ) (+ (* aceiteComprado_3_3 130 ) (+ (* aceiteComprado_3_2 140 ) (+ (* aceiteComprado_3_1 110 ) (+ (* aceiteComprado_2_5 115 ) (+ (* aceiteComprado_2_4 90 ) (+ (* aceiteComprado_2_3 110 ) (+ (* aceiteComprado_2_2 130 ) (+ (* aceiteComprado_2_1 130 ) (+ (* aceiteComprado_1_5 115 ) (+ (* aceiteComprado_1_4 110 ) (+ (* aceiteComprado_1_3 130 ) (+ (* aceiteComprado_1_2 120 ) (* aceiteComprado_1_1 110 ) ) ) ) ) ) ) ) ) ) ) ) ) ) ) ) ) ) ) ) ) ) ) ) ) ) ) ) ) ) ) 0 ) )
(assert (<= (+ (ite (distinct aceiteRefinado_1_5 0 ) 1 0 ) (+ (ite (distinct aceiteRefinado_1_4 0 ) 1 0 ) (+ (ite (distinct aceiteRefinado_1_3 0 ) 1 0 ) (+ (ite (distinct aceiteRefinado_1_2 0 ) 1 0 ) (ite (distinct aceiteRefinado_1_1 0 ) 1 0 ) ) ) ) ) 3 ) )
(assert (<= (+ (ite (distinct aceiteRefinado_2_5 0 ) 1 0 ) (+ (ite (distinct aceiteRefinado_2_4 0 ) 1 0 ) (+ (ite (distinct aceiteRefinado_2_3 0 ) 1 0 ) (+ (ite (distinct aceiteRefinado_2_2 0 ) 1 0 ) (ite (distinct aceiteRefinado_2_1 0 ) 1 0 ) ) ) ) ) 3 ) )
(assert (<= (+ (ite (distinct aceiteRefinado_3_5 0 ) 1 0 ) (+ (ite (distinct aceiteRefinado_3_4 0 ) 1 0 ) (+ (ite (distinct aceiteRefinado_3_3 0 ) 1 0 ) (+ (ite (distinct aceiteRefinado_3_2 0 ) 1 0 ) (ite (distinct aceiteRefinado_3_1 0 ) 1 0 ) ) ) ) ) 3 ) )
(assert (<= (+ (ite (distinct aceiteRefinado_4_5 0 ) 1 0 ) (+ (ite (distinct aceiteRefinado_4_4 0 ) 1 0 ) (+ (ite (distinct aceiteRefinado_4_3 0 ) 1 0 ) (+ (ite (distinct aceiteRefinado_4_2 0 ) 1 0 ) (ite (distinct aceiteRefinado_4_1 0 ) 1 0 ) ) ) ) ) 3 ) )
(assert (<= (+ (ite (distinct aceiteRefinado_5_5 0 ) 1 0 ) (+ (ite (distinct aceiteRefinado_5_4 0 ) 1 0 ) (+ (ite (distinct aceiteRefinado_5_3 0 ) 1 0 ) (+ (ite (distinct aceiteRefinado_5_2 0 ) 1 0 ) (ite (distinct aceiteRefinado_5_1 0 ) 1 0 ) ) ) ) ) 3 ) )
(assert (<= (+ (ite (distinct aceiteRefinado_6_5 0 ) 1 0 ) (+ (ite (distinct aceiteRefinado_6_4 0 ) 1 0 ) (+ (ite (distinct aceiteRefinado_6_3 0 ) 1 0 ) (+ (ite (distinct aceiteRefinado_6_2 0 ) 1 0 ) (ite (distinct aceiteRefinado_6_1 0 ) 1 0 ) ) ) ) ) 3 ) )
(assert (or (not (distinct aceiteRefinado_1_5 0 ) ) (>= aceiteRefinado_1_5 20 ) ) )
(assert (or (not (distinct aceiteRefinado_2_5 0 ) ) (>= aceiteRefinado_2_5 20 ) ) )
(assert (or (not (distinct aceiteRefinado_3_5 0 ) ) (>= aceiteRefinado_3_5 20 ) ) )
(assert (or (not (distinct aceiteRefinado_4_5 0 ) ) (>= aceiteRefinado_4_5 20 ) ) )
(assert (or (not (distinct aceiteRefinado_5_5 0 ) ) (>= aceiteRefinado_5_5 20 ) ) )
(assert (or (not (distinct aceiteRefinado_6_5 0 ) ) (>= aceiteRefinado_6_5 20 ) ) )
(assert (or (not (or (distinct aceiteRefinado_1_1 0 ) (distinct aceiteRefinado_1_2 0 ) ) ) (distinct aceiteRefinado_1_5 0 ) ) )
(assert (or (not (or (distinct aceiteRefinado_2_1 0 ) (distinct aceiteRefinado_2_2 0 ) ) ) (distinct aceiteRefinado_2_5 0 ) ) )
(assert (or (not (or (distinct aceiteRefinado_3_1 0 ) (distinct aceiteRefinado_3_2 0 ) ) ) (distinct aceiteRefinado_3_5 0 ) ) )
(assert (or (not (or (distinct aceiteRefinado_4_1 0 ) (distinct aceiteRefinado_4_2 0 ) ) ) (distinct aceiteRefinado_4_5 0 ) ) )
(assert (or (not (or (distinct aceiteRefinado_5_1 0 ) (distinct aceiteRefinado_5_2 0 ) ) ) (distinct aceiteRefinado_5_5 0 ) ) )
(assert (or (not (or (distinct aceiteRefinado_6_1 0 ) (distinct aceiteRefinado_6_2 0 ) ) ) (distinct aceiteRefinado_6_5 0 ) ) )
(assert (<= (+ (ite (< (+ (- (* aceiteRefinado_6_5 400 ) (* aceiteComprado_6_5 135 ) ) (+ (- (* aceiteRefinado_6_4 400 ) (* aceiteComprado_6_4 80 ) ) (+ (- (* aceiteRefinado_6_3 400 ) (* aceiteComprado_6_3 140 ) ) (+ (- (* aceiteRefinado_6_2 400 ) (* aceiteComprado_6_2 100 ) ) (- (* aceiteRefinado_6_1 400 ) (* aceiteComprado_6_1 90 ) ) ) ) ) ) 0 ) 1 0 ) (+ (ite (< (+ (- (* aceiteRefinado_5_5 400 ) (* aceiteComprado_5_5 105 ) ) (+ (- (* aceiteRefinado_5_4 400 ) (* aceiteComprado_5_4 110 ) ) (+ (- (* aceiteRefinado_5_3 400 ) (* aceiteComprado_5_3 150 ) ) (+ (- (* aceiteRefinado_5_2 400 ) (* aceiteComprado_5_2 120 ) ) (- (* aceiteRefinado_5_1 400 ) (* aceiteComprado_5_1 100 ) ) ) ) ) ) 0 ) 1 0 ) (+ (ite (< (+ (- (* aceiteRefinado_4_5 400 ) (* aceiteComprado_4_5 125 ) ) (+ (- (* aceiteRefinado_4_4 400 ) (* aceiteComprado_4_4 120 ) ) (+ (- (* aceiteRefinado_4_3 400 ) (* aceiteComprado_4_3 120 ) ) (+ (- (* aceiteRefinado_4_2 400 ) (* aceiteComprado_4_2 110 ) ) (- (* aceiteRefinado_4_1 400 ) (* aceiteComprado_4_1 120 ) ) ) ) ) ) 0 ) 1 0 ) (+ (ite (< (+ (- (* aceiteRefinado_3_5 400 ) (* aceiteComprado_3_5 95 ) ) (+ (- (* aceiteRefinado_3_4 400 ) (* aceiteComprado_3_4 100 ) ) (+ (- (* aceiteRefinado_3_3 400 ) (* aceiteComprado_3_3 130 ) ) (+ (- (* aceiteRefinado_3_2 400 ) (* aceiteComprado_3_2 140 ) ) (- (* aceiteRefinado_3_1 400 ) (* aceiteComprado_3_1 110 ) ) ) ) ) ) 0 ) 1 0 ) (+ (ite (< (+ (- (* aceiteRefinado_2_5 400 ) (* aceiteComprado_2_5 115 ) ) (+ (- (* aceiteRefinado_2_4 400 ) (* aceiteComprado_2_4 90 ) ) (+ (- (* aceiteRefinado_2_3 400 ) (* aceiteComprado_2_3 110 ) ) (+ (- (* aceiteRefinado_2_2 400 ) (* aceiteComprado_2_2 130 ) ) (- (* aceiteRefinado_2_1 400 ) (* aceiteComprado_2_1 130 ) ) ) ) ) ) 0 ) 1 0 ) (ite (< (+ (- (* aceiteRefinado_1_5 400 ) (* aceiteComprado_1_5 115 ) ) (+ (- (* aceiteRefinado_1_4 400 ) (* aceiteComprado_1_4 110 ) ) (+ (- (* aceiteRefinado_1_3 400 ) (* aceiteComprado_1_3 130 ) ) (+ (- (* aceiteRefinado_1_2 400 ) (* aceiteComprado_1_2 120 ) ) (- (* aceiteRefinado_1_1 400 ) (* aceiteComprado_1_1 110 ) ) ) ) ) ) 0 ) 1 0 ) ) ) ) ) ) 4 ) )
(assert (or (not (distinct 0 0 ) ) (= aceiteRefinado_1_0 0 ) ) )
(assert (or (not (distinct 0 0 ) ) (= aceiteRefinado_2_0 0 ) ) )
(assert (or (not (distinct 0 0 ) ) (= aceiteRefinado_3_0 0 ) ) )
(assert (or (not (distinct 0 0 ) ) (= aceiteRefinado_4_0 0 ) ) )
(assert (or (not (distinct 0 0 ) ) (= aceiteRefinado_5_0 0 ) ) )
(assert (or (not (distinct 0 0 ) ) (= aceiteRefinado_6_0 0 ) ) )
(assert (>= (+ aceiteRefinado_1_5 (+ aceiteRefinado_1_4 (+ aceiteRefinado_1_3 (+ aceiteRefinado_1_2 aceiteRefinado_1_1 ) ) ) ) 1 ) )
(assert (>= (+ aceiteRefinado_2_5 (+ aceiteRefinado_2_4 (+ aceiteRefinado_2_3 (+ aceiteRefinado_2_2 (+ aceiteRefinado_2_1 aceiteRefinado_1_1 ) ) ) ) ) 1 ) )
(assert (>= (+ aceiteRefinado_3_5 (+ aceiteRefinado_3_4 (+ aceiteRefinado_3_3 (+ aceiteRefinado_3_2 (+ aceiteRefinado_3_1 aceiteRefinado_1_1 ) ) ) ) ) 0 ) )
(assert (>= (+ aceiteRefinado_4_5 (+ aceiteRefinado_4_4 (+ aceiteRefinado_4_3 (+ aceiteRefinado_4_2 (+ aceiteRefinado_4_1 aceiteRefinado_1_1 ) ) ) ) ) 0 ) )
(assert (>= (+ aceiteRefinado_5_5 (+ aceiteRefinado_5_4 (+ aceiteRefinado_5_3 (+ aceiteRefinado_5_2 (+ aceiteRefinado_5_1 aceiteRefinado_1_1 ) ) ) ) ) 0 ) )
(assert (>= (+ aceiteRefinado_6_5 (+ aceiteRefinado_6_4 (+ aceiteRefinado_6_3 (+ aceiteRefinado_6_2 (+ aceiteRefinado_6_1 aceiteRefinado_1_1 ) ) ) ) ) 0 ) )
(maximize ( (- (* aceiteRefinado_1_1 400 ) (* aceiteComprado_1_1 110 ) ) ) )
(check-sat)
(get-value ( aceiteComprado_1_1 ) )
(get-value ( aceiteComprado_1_2 ) )
(get-value ( aceiteComprado_1_3 ) )
(get-value ( aceiteComprado_1_4 ) )
(get-value ( aceiteComprado_1_5 ) )
(get-value ( aceiteComprado_2_1 ) )
(get-value ( aceiteComprado_2_2 ) )
(get-value ( aceiteComprado_2_3 ) )
(get-value ( aceiteComprado_2_4 ) )
(get-value ( aceiteComprado_2_5 ) )
(get-value ( aceiteComprado_3_1 ) )
(get-value ( aceiteComprado_3_2 ) )
(get-value ( aceiteComprado_3_3 ) )
(get-value ( aceiteComprado_3_4 ) )
(get-value ( aceiteComprado_3_5 ) )
(get-value ( aceiteComprado_4_1 ) )
(get-value ( aceiteComprado_4_2 ) )
(get-value ( aceiteComprado_4_3 ) )
(get-value ( aceiteComprado_4_4 ) )
(get-value ( aceiteComprado_4_5 ) )
(get-value ( aceiteComprado_5_1 ) )
(get-value ( aceiteComprado_5_2 ) )
(get-value ( aceiteComprado_5_3 ) )
(get-value ( aceiteComprado_5_4 ) )
(get-value ( aceiteComprado_5_5 ) )
(get-value ( aceiteComprado_6_1 ) )
(get-value ( aceiteComprado_6_2 ) )
(get-value ( aceiteComprado_6_3 ) )
(get-value ( aceiteComprado_6_4 ) )
(get-value ( aceiteComprado_6_5 ) )
(get-value ( aceiteRefinado_1_1 ) )
(get-value ( aceiteRefinado_1_2 ) )
(get-value ( aceiteRefinado_1_3 ) )
(get-value ( aceiteRefinado_1_4 ) )
(get-value ( aceiteRefinado_1_5 ) )
(get-value ( aceiteRefinado_2_1 ) )
(get-value ( aceiteRefinado_2_2 ) )
(get-value ( aceiteRefinado_2_3 ) )
(get-value ( aceiteRefinado_2_4 ) )
(get-value ( aceiteRefinado_2_5 ) )
(get-value ( aceiteRefinado_3_1 ) )
(get-value ( aceiteRefinado_3_2 ) )
(get-value ( aceiteRefinado_3_3 ) )
(get-value ( aceiteRefinado_3_4 ) )
(get-value ( aceiteRefinado_3_5 ) )
(get-value ( aceiteRefinado_4_1 ) )
(get-value ( aceiteRefinado_4_2 ) )
(get-value ( aceiteRefinado_4_3 ) )
(get-value ( aceiteRefinado_4_4 ) )
(get-value ( aceiteRefinado_4_5 ) )
(get-value ( aceiteRefinado_5_1 ) )
(get-value ( aceiteRefinado_5_2 ) )
(get-value ( aceiteRefinado_5_3 ) )
(get-value ( aceiteRefinado_5_4 ) )
(get-value ( aceiteRefinado_5_5 ) )
(get-value ( aceiteRefinado_6_1 ) )
(get-value ( aceiteRefinado_6_2 ) )
(get-value ( aceiteRefinado_6_3 ) )
(get-value ( aceiteRefinado_6_4 ) )
(get-value ( aceiteRefinado_6_5 ) )
(get-value ( aceiteAlmacenado_0_1 ) )
(get-value ( aceiteAlmacenado_0_2 ) )
(get-value ( aceiteAlmacenado_0_3 ) )
(get-value ( aceiteAlmacenado_0_4 ) )
(get-value ( aceiteAlmacenado_0_5 ) )
(get-value ( aceiteAlmacenado_1_1 ) )
(get-value ( aceiteAlmacenado_1_2 ) )
(get-value ( aceiteAlmacenado_1_3 ) )
(get-value ( aceiteAlmacenado_1_4 ) )
(get-value ( aceiteAlmacenado_1_5 ) )
(get-value ( aceiteAlmacenado_2_1 ) )
(get-value ( aceiteAlmacenado_2_2 ) )
(get-value ( aceiteAlmacenado_2_3 ) )
(get-value ( aceiteAlmacenado_2_4 ) )
(get-value ( aceiteAlmacenado_2_5 ) )
(get-value ( aceiteAlmacenado_3_1 ) )
(get-value ( aceiteAlmacenado_3_2 ) )
(get-value ( aceiteAlmacenado_3_3 ) )
(get-value ( aceiteAlmacenado_3_4 ) )
(get-value ( aceiteAlmacenado_3_5 ) )
(get-value ( aceiteAlmacenado_4_1 ) )
(get-value ( aceiteAlmacenado_4_2 ) )
(get-value ( aceiteAlmacenado_4_3 ) )
(get-value ( aceiteAlmacenado_4_4 ) )
(get-value ( aceiteAlmacenado_4_5 ) )
(get-value ( aceiteAlmacenado_5_1 ) )
(get-value ( aceiteAlmacenado_5_2 ) )
(get-value ( aceiteAlmacenado_5_3 ) )
(get-value ( aceiteAlmacenado_5_4 ) )
(get-value ( aceiteAlmacenado_5_5 ) )
(get-value ( aceiteAlmacenado_6_1 ) )
(get-value ( aceiteAlmacenado_6_2 ) )
(get-value ( aceiteAlmacenado_6_3 ) )
(get-value ( aceiteAlmacenado_6_4 ) )
(get-value ( aceiteAlmacenado_6_5 ) )
